\ Model ajuste
\ LP format - for model browsing. Use MPS format to capture full model detail.
Minimize
  - 2.8812613854588312e+08 coef_ajuste + 1.4406306927294219e+08 Constant + [
   2.881261385458864e+08 coef_ajuste ^2 ] / 2 
Subject To
Bounds
 coef_ajuste <= 1
 Constant = 1
End
